# Objective value = 6
x0,1_6 0
x0,1_11 0
x0,1_20 0
x0,1_23 0
x0,1_36 0
x0,1_59 0
x0,1_60 0
x0,1_65 0
x0,1_76 0
x0,2_6 0
x0,2_11 0
x0,2_20 0
x0,2_23 0
x0,2_36 1
x0,2_59 0
x0,2_60 0
x0,2_65 0
x0,2_76 0
x0,3_6 0
x0,3_11 0
x0,3_20 0
x0,3_23 0
x0,3_36 0
x0,3_59 1
x0,3_60 0
x0,3_65 0
x0,3_76 0
x0,4_6 0
x0,4_11 0
x0,4_20 0
x0,4_23 0
x0,4_36 0
x0,4_59 0
x0,4_60 0
x0,4_65 1
x0,4_76 0
x0,5_6 0
x0,5_11 0
x0,5_20 0
x0,5_23 0
x0,5_36 0
x0,5_59 0
x0,5_60 0
x0,5_65 0
x0,5_76 1
x0,6_6 0
x0,6_11 0
x0,6_20 0
x0,6_23 0
x0,6_36 0
x0,6_59 0
x0,6_60 0
x0,6_65 0
x0,6_76 0
x0,7_6 0
x0,7_11 0
x0,7_20 0
x0,7_23 0
x0,7_36 0
x0,7_59 0
x0,7_60 0
x0,7_65 0
x0,7_76 0
x0,8_6 0
x0,8_11 0
x0,8_20 0
x0,8_23 0
x0,8_36 0
x0,8_59 0
x0,8_60 0
x0,8_65 0
x0,8_76 0
x0,9_6 0
x0,9_11 0
x0,9_20 0
x0,9_23 0
x0,9_36 0
x0,9_59 0
x0,9_60 0
x0,9_65 0
x0,9_76 0
x1,2_6 0
x1,2_11 0
x1,2_20 1
x1,2_23 0
x1,2_36 0
x1,2_59 0
x1,2_60 0
x1,2_65 0
x1,2_76 0
x1,3_6 0
x1,3_11 0
x1,3_20 0
x1,3_23 0
x1,3_36 0
x1,3_59 0
x1,3_60 0
x1,3_65 0
x1,3_76 0
x1,4_6 0
x1,4_11 0
x1,4_20 0
x1,4_23 0
x1,4_36 0
x1,4_59 0
x1,4_60 0
x1,4_65 0
x1,4_76 0
x1,5_6 0
x1,5_11 0
x1,5_20 0
x1,5_23 0
x1,5_36 0
x1,5_59 0
x1,5_60 1
x1,5_65 0
x1,5_76 0
x1,6_6 0
x1,6_11 0
x1,6_20 0
x1,6_23 0
x1,6_36 0
x1,6_59 0
x1,6_60 0
x1,6_65 0
x1,6_76 0
x1,7_6 0
x1,7_11 0
x1,7_20 0
x1,7_23 0
x1,7_36 0
x1,7_59 0
x1,7_60 0
x1,7_65 0
x1,7_76 0
x1,8_6 0
x1,8_11 0
x1,8_20 0
x1,8_23 0
x1,8_36 0
x1,8_59 0
x1,8_60 0
x1,8_65 0
x1,8_76 0
x1,9_6 0
x1,9_11 0
x1,9_20 0
x1,9_23 0
x1,9_36 0
x1,9_59 0
x1,9_60 0
x1,9_65 0
x1,9_76 0
x2,3_6 0
x2,3_11 0
x2,3_20 0
x2,3_23 1
x2,3_36 0
x2,3_59 0
x2,3_60 0
x2,3_65 0
x2,3_76 0
x2,4_6 0
x2,4_11 0
x2,4_20 0
x2,4_23 0
x2,4_36 0
x2,4_59 0
x2,4_60 0
x2,4_65 0
x2,4_76 0
x2,5_6 0
x2,5_11 0
x2,5_20 0
x2,5_23 0
x2,5_36 0
x2,5_59 0
x2,5_60 0
x2,5_65 0
x2,5_76 0
x2,6_6 0
x2,6_11 0
x2,6_20 0
x2,6_23 0
x2,6_36 0
x2,6_59 0
x2,6_60 0
x2,6_65 0
x2,6_76 0
x2,7_6 0
x2,7_11 0
x2,7_20 0
x2,7_23 0
x2,7_36 0
x2,7_59 0
x2,7_60 0
x2,7_65 0
x2,7_76 0
x2,8_6 0
x2,8_11 0
x2,8_20 0
x2,8_23 0
x2,8_36 0
x2,8_59 0
x2,8_60 0
x2,8_65 0
x2,8_76 0
x2,9_6 0
x2,9_11 0
x2,9_20 0
x2,9_23 0
x2,9_36 0
x2,9_59 0
x2,9_60 0
x2,9_65 0
x2,9_76 0
x3,4_6 1
x3,4_11 0
x3,4_20 0
x3,4_23 0
x3,4_36 0
x3,4_59 0
x3,4_60 0
x3,4_65 0
x3,4_76 0
x3,5_6 0
x3,5_11 0
x3,5_20 0
x3,5_23 0
x3,5_36 0
x3,5_59 0
x3,5_60 0
x3,5_65 0
x3,5_76 0
x3,6_6 0
x3,6_11 0
x3,6_20 0
x3,6_23 0
x3,6_36 0
x3,6_59 0
x3,6_60 0
x3,6_65 0
x3,6_76 0
x3,7_6 0
x3,7_11 0
x3,7_20 0
x3,7_23 0
x3,7_36 0
x3,7_59 0
x3,7_60 0
x3,7_65 0
x3,7_76 0
x3,8_6 0
x3,8_11 0
x3,8_20 0
x3,8_23 0
x3,8_36 0
x3,8_59 0
x3,8_60 0
x3,8_65 0
x3,8_76 0
x3,9_6 0
x3,9_11 0
x3,9_20 0
x3,9_23 0
x3,9_36 0
x3,9_59 0
x3,9_60 0
x3,9_65 0
x3,9_76 0
x4,5_6 0
x4,5_11 1
x4,5_20 0
x4,5_23 0
x4,5_36 0
x4,5_59 0
x4,5_60 0
x4,5_65 0
x4,5_76 0
x4,6_6 0
x4,6_11 0
x4,6_20 0
x4,6_23 0
x4,6_36 0
x4,6_59 0
x4,6_60 0
x4,6_65 0
x4,6_76 0
x4,7_6 0
x4,7_11 0
x4,7_20 0
x4,7_23 0
x4,7_36 0
x4,7_59 0
x4,7_60 0
x4,7_65 0
x4,7_76 0
x4,8_6 0
x4,8_11 0
x4,8_20 0
x4,8_23 0
x4,8_36 0
x4,8_59 0
x4,8_60 0
x4,8_65 0
x4,8_76 0
x4,9_6 0
x4,9_11 0
x4,9_20 0
x4,9_23 0
x4,9_36 0
x4,9_59 0
x4,9_60 0
x4,9_65 0
x4,9_76 0
x5,6_6 0
x5,6_11 0
x5,6_20 0
x5,6_23 0
x5,6_36 0
x5,6_59 0
x5,6_60 0
x5,6_65 0
x5,6_76 0
x5,7_6 0
x5,7_11 0
x5,7_20 0
x5,7_23 0
x5,7_36 0
x5,7_59 0
x5,7_60 0
x5,7_65 0
x5,7_76 0
x5,8_6 0
x5,8_11 0
x5,8_20 0
x5,8_23 0
x5,8_36 0
x5,8_59 0
x5,8_60 0
x5,8_65 0
x5,8_76 0
x5,9_6 0
x5,9_11 0
x5,9_20 0
x5,9_23 0
x5,9_36 0
x5,9_59 0
x5,9_60 0
x5,9_65 0
x5,9_76 0
x6,7_6 0
x6,7_11 0
x6,7_20 0
x6,7_23 0
x6,7_36 0
x6,7_59 0
x6,7_60 0
x6,7_65 0
x6,7_76 0
x6,8_6 0
x6,8_11 0
x6,8_20 0
x6,8_23 0
x6,8_36 0
x6,8_59 0
x6,8_60 0
x6,8_65 0
x6,8_76 0
x6,9_6 0
x6,9_11 0
x6,9_20 0
x6,9_23 0
x6,9_36 0
x6,9_59 0
x6,9_60 0
x6,9_65 0
x6,9_76 0
x7,8_6 0
x7,8_11 0
x7,8_20 0
x7,8_23 0
x7,8_36 0
x7,8_59 0
x7,8_60 0
x7,8_65 0
x7,8_76 0
x7,9_6 0
x7,9_11 0
x7,9_20 0
x7,9_23 0
x7,9_36 0
x7,9_59 0
x7,9_60 0
x7,9_65 0
x7,9_76 0
x8,9_6 0
x8,9_11 0
x8,9_20 0
x8,9_23 0
x8,9_36 0
x8,9_59 0
x8,9_60 0
x8,9_65 0
x8,9_76 0
z0 1
z1 1
z2 1
z3 1
z4 1
z5 1
z6 0
z7 0
z8 0
z9 0
p0 16
p1 32
p2 52
p3 75
p4 81
p5 92
p6 99
p7 100
p8 101
p9 102
